SPARKNaCl/why3-z3/sparknacl-sanitize.adb_4_6_length_check3_1.smt2
;; produced by z3_gnatprove.drv ;;
(set-info :smt-lib-version 2.5)
(set-info :source |VC generated by SPARK 2014|)
(set-info :category industrial)
(set-info :status unknown)
;;; generated by SMT-LIB2 driver
;;; SMT-LIB2 driver: bit-vectors, common part
;;; SMT-LIB2: integer arithmetic
(declare-sort tinteger_32B 0)

;; "tinteger_32B'int"
(declare-fun tinteger_32Bqtint (tinteger_32B) Int)

;; "tinteger_32B'axiom"
(assert
  (forall ((i tinteger_32B))
    (and
      (<= (- 2147483648) (tinteger_32Bqtint i))
      (<= (tinteger_32Bqtint i) 2147483647))))

;; "in_range"
(define-fun in_range ((x Int)) Bool
  (and (<= (- 2147483648) x) (<= x 2147483647)))

(declare-sort byte 0)

;; "to_rep"
(define-fun to_rep ((x tinteger_32B)) Int
  (tinteger_32Bqtint x))

;; "of_rep"
(declare-fun of_rep (Int) tinteger_32B)

;; "inversion_axiom"
(assert
  (forall ((x tinteger_32B))
    (! (= (of_rep (to_rep x)) x) :pattern ((to_rep x)) )))

;; "range_axiom"
(assert
  (forall ((x tinteger_32B))
    (! (in_range (to_rep x)) :pattern ((to_rep x)) )))

;; "coerce_axiom"
(assert
  (forall ((x Int))
    (! (=> (in_range x) (= (to_rep (of_rep x)) x)) :pattern ((to_rep
                                                               (of_rep x))) )))

;; "in_range"
(define-fun in_range1 ((x Int)) Bool
  (and (<= 0 x) (<= x 2147483647)))

;; "to_rep"
(declare-fun to_rep1 (byte) (_ BitVec 8))

;; "of_rep"
(declare-fun of_rep1 ((_ BitVec 8)) byte)

;; "inversion_axiom"
(assert
  (forall ((x byte)) (! (= (of_rep1 (to_rep1 x)) x) :pattern ((to_rep1 x)) )))

;; "range_axiom"
(assert true)

;; "coerce_axiom"
(assert
  (forall ((x (_ BitVec 8)))
    (! (= (to_rep1 (of_rep1 x)) x) :pattern ((to_rep1 (of_rep1 x))) )))

(declare-sort map1 0)

(declare-datatypes ()
  ((map__ref (map__refqtmk (map__content map1)))))

;; "has_bounds"
(declare-fun has_bounds (map1
  Int
  Int) Bool)

;; "get"
(declare-fun get (map1
  Int) byte)

(declare-datatypes ()
  ((t (tqtmk (rec__first tinteger_32B)(rec__last tinteger_32B)))))

;; "mk"
(declare-fun mk (Int
  Int) t)

;; "mk_def"
(assert
  (forall ((f Int) (l Int))
    (! (=>
         (in_range f)
         (=>
           (in_range l)
           (and
             (= (to_rep (rec__first (mk f l))) f)
             (= (to_rep (rec__last (mk f l))) l)))) :pattern ((mk f l)) )))

;; "dynamic_property"
(define-fun dynamic_property ((range_first Int) (range_last Int) (low Int) (high Int)) Bool
  (and
    (in_range low)
    (and
      (in_range high)
      (=> (<= low high) (and (in_range1 low) (in_range1 high))))))

(declare-datatypes ()
  ((us_t (us_tqtmk (elts map1)(rt t)))))

;; "to_array"
(define-fun to_array ((a us_t)) map1
  (elts a))

;; "of_array"
(define-fun of_array ((a map1) (f Int) (l Int)) us_t
  (us_tqtmk a (mk f l)))

;; "first"
(define-fun first ((a us_t)) Int
  (to_rep (rec__first (rt a))))

;; "last"
(define-fun last ((a us_t)) Int
  (to_rep (rec__last (rt a))))

;; "well_formed"
(define-fun well_formed ((a us_t)) Bool
  (has_bounds
    (elts a)
    (to_rep (rec__first (rt a)))
    (to_rep (rec__last (rt a)))))

(declare-const r__first tinteger_32B)

(declare-const r__last tinteger_32B)

;; "temp_____aggregate_def_1474"
(declare-fun temp_____aggregate_def_1474 ((_ BitVec 8)
  Int
  Int) us_t)

(declare-const r map1)

;; "r'unused"
(define-fun rqtunused () map__ref
  (map__refqtmk r))

;; "Assume"
(assert
  (and
    (dynamic_property 0 2147483647 (to_rep r__first) (to_rep r__last))
    (well_formed (of_array r (to_rep r__first) (to_rep r__last)))))

(declare-const o Int)

;; "Ensures"
(assert (= (to_rep r__last) o))

;; "to_rep'result'unused"
(define-fun to_repqtresultqtunused () Int
  o)

(declare-const o1 Int)

;; "Ensures"
(assert (= (to_rep r__first) o1))

;; "to_rep'result'unused"
(define-fun to_repqtresultqtunused1 () Int
  o1)

(declare-const temp___1482 us_t)

;; "H"
(assert (= (first temp___1482) o1))

;; "H"
(assert (= (last temp___1482) o))

;; "H"
(assert true)

;; "H"
(assert (well_formed temp___1482))

;; "H"
(assert
  (forall ((temp___1477 Int))
    (! (=>
         (and
           (<= (first temp___1482) temp___1477)
           (<= temp___1477 (last temp___1482)))
         (= (to_rep1 (get (to_array temp___1482) temp___1477)) #x00)) :pattern (
    (get
      (to_array temp___1482)
      temp___1477)) )))

;; "H"
(assert (= temp___1482 (temp_____aggregate_def_1474 #x00 o1 o)))

;; "temp_____aggregate_def_1474'result'unused"
(define-fun temp_____aggregate_def_1474qtresultqtunused () us_t
  temp___1482)

;; "temp___1483"
(define-fun temp___1483 () map1
  (to_array temp___1482))

;; "to_array'result'unused"
(define-fun to_arrayqtresultqtunused () map1
  temp___1483)

;; "o"
(define-fun o2 () Int
  (last temp___1482))

;; "last'result'unused"
(define-fun lastqtresultqtunused () Int
  o2)

;; "o"
(define-fun o3 () Int
  (first temp___1482))

;; "first'result'unused"
(define-fun firstqtresultqtunused () Int
  o3)

;; "temp___1484"
(define-fun temp___1484 () us_t
  temp___1482)

;; "of_array'result'unused"
(define-fun of_arrayqtresultqtunused () us_t
  temp___1484)

(declare-const o4 Int)

;; "Ensures"
(assert (= (to_rep r__last) o4))

;; "to_rep'result'unused"
(define-fun to_repqtresultqtunused2 () Int
  o4)

(declare-const o5 Int)

;; "Ensures"
(assert (= (to_rep r__first) o5))

;; "to_rep'result'unused"
(define-fun to_repqtresultqtunused3 () Int
  o5)

;; "map__content'result'unused"
(define-fun map__contentqtresultqtunused () map1
  r)

;; "temp___1485"
(define-fun temp___1485 () us_t
  (of_array r o5 o4))

;; "of_array'result'unused"
(define-fun of_arrayqtresultqtunused1 () us_t
  temp___1485)

;; "H"
(assert (not (<= (first temp___1484) (last temp___1484))))

;; Goal "def'vc"
;; File "sparknacl.ads", line 148, characters 0-0
(assert
  (not (< o4 o5)))

(check-sat)
